c Lingeling SAT Solver
c 
c Version azf 92032848c138b2f33629ad24394d60a3787a1046
c 
c Copyright (C) 2010-2014 Armin Biere JKU Linz Austria.
c All rights reserved.
c 
c released Don Mai 22 22:08:00 CEST 2014
c compiled Mon Oct  6 05:55:43 PDT 2014
c 
c gcc (Ubuntu 4.8.2-19ubuntu1) 4.8.2
c -Wall -O3 -DNDBLSCR -DNLGLOG -DNDEBUG -DNCHKSOL -DNLGLPICOSAT -DNLGLDRUPLIG
c -DNLGLYALSAT
c Linux ubuntu 3.13.0-32-generic x86_64
c 
c reading input file benchmark-sat/translations/gc-queen6_6-5.cnf
c no embedded options
c found 'p cnf 180 3296' header
c read 180 variables, 3296 clauses, 6700 literals in 0.00 seconds
c 
c  seconds         irredundant          redundant clauses agility   height
c          variables clauses conflicts large ternary binary    glue         MB
c 
c S    0.0     180     3296         0       0      0     0   0  0.0   0.0    0
c 
c  seconds         irredundant          redundant clauses agility   height
c          variables clauses conflicts large ternary binary    glue         MB
c 
s UNSATISFIABLE
c
c    0.007  80% simplifying
c    0.002  20% search
c ==================================
c    0.009 100% all
c 
c 163 decisions, 18533.3 decisions/sec
c 144 conflicts, 16372.9 conflicts/sec
c 3611 propagations, 0.4 megaprops/sec
c 0.0 seconds, 0.2 MB
